c --- [ banner ] -------------------------------------------------------------
c 
c CaDiCaL Radically Simplified CDCL SAT Solver
c Copyright (c) 2016-2021 A. Biere, M. Fleury, N. Froleyks
c 
c Version 1.5.2 9c38a080b32c28d805e8e6ca21849856b0cda605
c g++ (Ubuntu 7.5.0-3ubuntu1~18.04) 7.5.0 -Wall -Wextra -O3 -DNDEBUG
c Wed Feb 16 23:15:36 EST 2022 Linux fac-vanhoeve01 5.4.0-99-generic x86_64
c 
c --- [ parsing input ] ------------------------------------------------------
c 
c reading DIMACS file from '<stdin>' (use '-h' for a list of common options)
c found 'p cnf 2692 7976' header
c parsed 7976 clauses in 0.00 seconds process time
c disconnecting from '<stdin>'
c after reading 106558 bytes 0.1 MB
c 
c --- [ options ] ------------------------------------------------------------
c 
c all options are set to their default value
c 
c --- [ solving ] ------------------------------------------------------------
c 
c time measured in process time since initialization
c 
c  seconds  reductions  redundant irredundant
c         MB    restarts       trail    variables
c          level   conflicts       glue      remaining
c 
c *  0.00  4  0 0   0    0    0  0% 0 7974 2618 97%
c {  0.01  4  0 0   0    0    0  0% 0 7974 2618 97%
c -  0.02  5 79 1  23  302  288 75% 8 7902 2618 97%
c -  0.06  5 42 2  68  902  717 83% 9 7902 2618 97%
c }  0.06  5 39 2  72 1001  808 84% 9 7902 2618 97%
c [  0.06  5  0 2  72 1001  808  0% 0 7902 2618 97%
c O  0.06  5 15 2  72 1002  809 96% 6 7902 2618 97%
c -  0.10  6 17 3  72 1802  997 93% 13 7902 2618 97%
c ]  0.18  6 17 3  73 3004 1762 93% 13 7902 2618 97%
c {  0.18  6 39 3  73 3004 1762 84% 9 7902 2618 97%
c -  0.18  6 39 4  74 3004 1235 84% 9 7902 2618 97%
c F  0.18  6 39 4  74 3005 1236 84% 9 7902 2618 97%
c s  0.20  6 37 4 118 3214 1433 84% 9 7902 2618 97%
c w  0.20  6 37 4 118 3214 1433 84% 9 7902 2618 97%
c e  0.22  6 37 4 118 3214   93 84% 9 5682 885 33%
c s  0.22  6 37 4 118 3214   87 84% 9 5682 885 33%
c -  0.28  6 30 5 227 4504 1251 84% 10 5682 885 33%
c p  0.31  6 28 5 257 5000 1725 84% 10 5682 885 33%
c #  0.35  6 25 5 302 6006 2561 80% 10 5682 885 33%
c -  0.36  6 25 6 324 6304 2102 80% 10 5682 885 33%
c 
c  seconds  reductions  redundant  irredundant
c         MB    restarts       trail     variables
c          level   conflicts       glue      remaining
c 
c }  0.39  6 24 6 385 7004 2723 81% 10 5682 885 33%
c [  0.39  6 17 6 385 7004 2723 281% 13 5682 885 33%
c -  0.45  6 21 7 386 8406 2556 201% 16 5682 885 33%
c I  0.53  6 21 7 387 10007 3669 165% 16 5682 885 33%
c -  0.58  6 23 8 388 10807 2763 154% 17 5682 885 33%
c -  0.72  7 25 9 390 13507 3247 133% 17 5682 885 33%
c s  0.75  7 25 9 390 13948 3629 131% 17 5682 885 33%
c w  0.75  7 25 9 390 13948 3629 131% 17 5682 885 33%
c s  0.76  7 25 9 390 13948 3629 131% 17 5682 885 33%
c ^  0.76  7 25 9 390 13948 3629 131% 17 5682 885 33%
c p  0.82  7 24 9 390 15001 4449 126% 17 5682 885 33%
c ]  0.82  7 24 9 390 15004 4451 126% 17 5682 885 33%
c {  0.82  7 24 9 390 15004 4451 81% 10 5682 885 33%
c B  0.82  7 24 9 391 15008 4455 81% 10 5682 885 33%
c -  0.89  7 24 10 505 16507 4000 82% 10 5682 885 33%
c -  1.04  6 21 11 612 19809 4454 84% 10 5682 885 33%
c W  1.11  6 22 11 708 21010 5566 84% 10 5682 885 33%
c -  1.22  7 21 12 843 23410 5061 83% 10 5682 885 33%
c -  1.40  6 21 13 1094 27310 5782 84% 10 5682 885 33%
c F  1.43  6 21 13 1120 28011 6416 84% 10 5682 885 33%
c 
c  seconds  reductions     redundant  irredundant
c         MB     restarts         trail     variables
c          level      conflicts       glue      remaining
c 
c p  1.53  6 20 13 1203 30002 8262 84% 10 5682 885 33%
c s  1.54  6 20 13 1203 30045 8273 84% 10 5682 885 33%
c w  1.55  6 20 13 1203 30045 8271 84% 10 5682 885 33%
c s  1.57  6 20 13 1203 30045 8269 84% 10 5682 885 33%
c ^  1.57  6 20 13 1203 30045 8269 84% 10 5682 885 33%
c }  1.62  6 20 13 1274 31005 9155 84% 10 5682 885 33%
c [  1.62  6 24 13 1274 31005 9155 126% 17 5682 885 33%
c -  1.64  7 24 14 1274 31510 6432 125% 17 5682 885 33%
c -  1.86  7 23 15 1277 36010 6201 113% 16 5682 885 33%
c B  1.86  7 23 15 1277 36016 6205 113% 16 5682 885 33%
c -  2.13  8 27 16 1280 40812 6469 107% 18 5682 885 33%
c W  2.41  8 29 16 1281 45019 10105 103% 19 5682 885 33%
c -  2.47  8 28 17 1281 45912 7148 103% 19 5682 885 33%
c p  2.73  8 28 17 1282 50004 10456 101% 19 5682 885 33%
c -  2.82  8 27 18 1282 51312 6910 100% 19 5682 885 33%
c s  2.84  8 27 18 1282 51507 7035 100% 19 5682 885 33%
c w  2.85  8 27 18 1282 51507 7031 100% 19 5682 885 33%
c s  2.86  8 27 18 1282 51507 7031 100% 19 5682 885 33%
c ^  2.87  8 27 18 1282 51507 7031 100% 19 5682 885 33%
c O  3.05  8 27 18 1283 55020 9290 99% 19 5682 885 33%
c 
c  seconds  reductions     redundant  irredundant
c         MB     restarts         trail     variables
c          level      conflicts       glue      remaining
c 
c -  3.17  8 27 19 1285 57015 6444 98% 19 5682 885 33%
c ]  3.49  8 26 19 1289 63008 10270 97% 19 5682 885 33%
c {  3.49  8 20 19 1289 63008 10270 84% 10 5682 885 33%
c -  3.50  8 20 20 1292 63015 6455 84% 10 5682 885 33%
c B  3.64  8 20 20 1468 66023 9252 84% 10 5682 885 33%
c -  3.79  8 20 21 1664 69318 8249 84% 10 5682 885 33%
c p  4.08  8 20 21 1929 75005 13378 84% 10 5682 885 33%
c -  4.13  9 19 22 1929 75920 9414 84% 10 5682 885 33%
c W  4.24  9 19 22 1960 78024 11084 84% 10 5682 885 33%
c s  4.28  9 19 22 1993 78334 11291 84% 10 5682 885 33%
c w  4.30  9 19 22 1993 78334 11288 84% 10 5682 885 33%
c s  4.32  9 19 22 1993 78334 11278 84% 10 5682 885 33%
c ^  4.32  9 19 22 1993 78334 11278 84% 10 5682 885 33%
c -  4.56  9 19 23 2170 82821 10353 84% 10 5682 885 33%
c -  4.92  9 18 24 2502 90022 10762 84% 10 5682 885 33%
c #  4.97  9 18 24 2524 91026 11708 84% 10 5682 885 33%
c -  5.30  8 18 25 2914 97525 11618 84% 10 5682 885 33%
c p  5.71  8 18 25 3463 105005 18542 84% 10 5682 885 33%
c B  5.71  8 18 25 3467 105027 18564 84% 10 5682 885 33%
c -  5.74  8 18 26 3488 105326 12631 84% 10 5682 885 33%
c 
c  seconds  reductions       redundant  irredundant
c         MB     restarts           trail     variables
c          level      conflicts         glue      remaining
c 
c s  6.03  8 18 26 3764 110527 17256 84% 10 5682 885 33%
c w  6.06  8 18 26 3764 110527 17254 84% 10 5682 885 33%
c e  6.07  9 18 26 3764 110527 3833 84% 10 8118 567 21%
c s  6.08  9 18 26 3764 110527 3832 84% 10 8118 567 21%
c ^  6.09  9 18 26 3764 110527 3832 84% 10 8118 567 21%
c -  6.23  8 19 27 3945 113428 5302 86% 10 8118 567 21%
c W  6.60  8 19 27 4442 120028 11427 83% 10 8118 567 21%
c -  6.69  9 19 28 4494 121828 10431 84% 10 8118 567 21%
c }  6.96  9 19 28 4856 127008 15169 83% 10 8118 567 21%
c [  6.96  9 26 28 4856 127008 15169 151% 19 8118 567 21%
c -  7.15 10 26 29 4856 130528 12591 145% 18 8118 567 21%
c B  7.44 10 26 29 4861 136030 17481 137% 18 8118 567 21%
c -  7.63 10 27 30 4863 139528 13068 133% 19 8118 567 21%
c p  7.66 10 27 30 4863 140007 13445 133% 19 8118 567 21%
c -  8.13  9 27 31 4864 148828 11342 124% 19 8118 567 21%
c W  8.43  9 27 31 4865 153034 14623 121% 20 8118 567 21%
c -  8.75 11 30 32 4865 158429 12754 118% 21 8118 567 21%
c s  9.15 11 32 32 4865 164284 18258 115% 21 8118 567 21%
c w  9.17 11 32 32 4865 164284 18254 115% 21 8118 567 21%
c s  9.20 11 32 32 4865 164284 18251 115% 21 8118 567 21%
c 
c  seconds  reductions       redundant   irredundant
c         MB     restarts           trail      variables
c          level      conflicts          glue      remaining
c 
c -  9.52 11 33 33 4866 168332 14057 113% 22 8118 567 21%
c I  9.70 11 33 33 4868 171037 16318 112% 22 8118 567 21%
c - 10.23 11 32 34 4872 178532 14019 109% 22 8118 567 21%
c p 10.34 11 32 34 4872 180008 15326 109% 22 8118 567 21%
c - 11.03 11 32 35 4879 189033 14140 106% 22 8118 567 21%
c B 11.10 11 32 35 4879 190038 14949 106% 22 8118 567 21%
c - 11.77 13 34 36 4880 199833 14581 104% 23 8118 567 21%
c W 12.67 13 35 36 4887 210039 23541 101% 23 8118 567 21%
c - 12.75 13 35 37 4887 210935 15661 101% 23 8118 567 21%
c - 13.61 11 35 38 4894 222337 15056 99% 24 8118 567 21%
c p 13.80 11 35 38 4894 225008 16809 99% 24 8118 567 21%
c O 14.24 11 34 38 4895 231041 21593 98% 24 8118 567 21%
c - 14.42 13 34 39 4895 234037 14942 97% 24 8118 567 21%
c - 15.14 13 33 40 4896 246040 14719 96% 23 8118 567 21%
c B 15.59 13 32 40 4897 253042 19849 95% 23 8118 567 21%
c ] 15.72 13 32 40 4897 255010 21599 95% 23 8118 567 21%
c { 15.72 13 19 40 4897 255010 21599 83% 10 8118 567 21%
c - 15.97 13 19 41 5333 258341 16428 83% 10 8118 567 21%
c - 16.76 14 19 42 6408 270941 18634 83% 10 8118 567 21%
c p 16.96 14 19 42 6581 275008 22118 81% 10 8118 567 21%
c 
c  seconds  reductions       redundant  irredundant
c         MB     restarts           trail     variables
c          level      conflicts         glue      remaining
c 
c F 17.03 14 19 42 6640 276043 23087 81% 10 8118 567 21%
c - 17.50 14 19 43 7022 283841 19709 82% 10 8118 567 21%
c - 18.30 14 19 44 7868 297041 20952 80% 10 8118 567 21%
c B 18.49 14 19 44 8175 300044 23686 80% 10 8118 567 21%
c - 19.18 16 19 45 8845 310541 21887 80% 10 8118 567 21%
c - 20.07 18 19 46 9705 324341 22960 80% 10 8118 567 21%
c W 20.20 18 19 46 9734 325046 23610 80% 10 8118 567 21%
c p 20.52 18 19 46 10060 330008 28158 80% 10 8118 563 21%
c s 20.57 18 19 46 10060 330008 28087 80% 10 8118 563 21%
c v 20.60 18 19 46 10060 330008 28087 80% 10 8080 563 21%
c w 20.63 18 19 46 10060 330008 28075 80% 10 8080 563 21%
c s 20.68 18 19 46 10060 330008 28071 80% 10 8060 563 21%
c - 21.25 18 19 47 10540 338442 23872 81% 10 8060 563 21%
c # 22.08 18 19 47 11411 351047 35433 81% 10 8060 563 21%
c - 22.21 18 19 48 11456 352842 24500 81% 10 8060 563 21%
c - 23.21 19 18 49 12246 367544 24780 80% 10 8060 563 21%
c B 24.01 19 18 49 13397 378048 34454 81% 10 8060 563 21%
c - 24.39 19 18 50 13849 382544 26952 81% 10 8060 563 21%
c p 24.89 19 18 50 14208 390011 33540 80% 10 8060 558 21%
c - 25.45 19 18 51 14661 397845 26620 80% 10 8035 558 21%
c 
c  seconds  reductions        redundant  irredundant
c         MB      restarts           trail     variables
c          level       conflicts         glue      remaining
c 
c s 25.59 19 18 51 14732 399121 27752 80% 10 7986 558 21%
c w 25.63 19 18 51 14732 399121 27747 80% 10 7986 558 21%
c s 25.68 19 18 51 14732 399121 27741 80% 10 7986 558 21%
c W 26.27 19 18 51 15040 406049 34224 81% 10 7986 558 21%
c - 26.80 15 18 52 15423 413449 27987 80% 10 7986 558 21%
c - 28.06 15 18 53 16642 429349 29854 80% 10 7986 558 21%
c F 28.46 15 18 53 17017 435050 34917 81% 10 7986 558 21%
c - 29.33 15 18 54 17881 445551 29755 81% 10 7986 558 21%
c p 30.11 15 18 54 18869 455012 38569 81% 10 7986 558 21%
c - 30.71 15 18 55 19317 462051 30634 81% 10 7986 558 21%
c B 30.89 15 18 55 19383 465052 33146 80% 10 7986 558 21%
c - 32.05 17 18 56 20561 478852 31132 80% 10 7986 558 21%
c - 33.45 15 18 57 21822 495953 32240 81% 10 7986 558 21%
c W 33.59 15 18 57 21822 496055 32320 81% 10 7986 558 21%
c } 34.88 15 18 57 23328 511010 45991 81% 10 7986 558 21%
c [ 34.88 15 32 57 23328 511010 45991 95% 23 7986 558 21%
c - 35.07 16 32 58 23328 513353 33063 95% 22 7986 558 21%
c p 35.89 16 30 58 23328 525012 42666 94% 21 7986 558 21%
c W 36.29 16 31 58 23328 528057 45476 93% 22 7986 558 21%
c - 36.55 16 31 59 23328 531053 31681 93% 22 7986 558 21%
c 
c  seconds  reductions        redundant  irredundant
c         MB      restarts           trail     variables
c          level       conflicts         glue      remaining
c 
c - 38.07 16 31 60 23335 549053 29205 92% 22 7986 558 21%
c I 39.11 16 30 60 23341 561058 39213 92% 22 7986 558 21%
c - 39.65 16 29 61 23343 567353 29935 92% 21 7986 558 21%
c - 41.20 16 27 62 23350 585954 29147 91% 20 7986 558 21%
c B 41.90 16 26 62 23357 595061 37039 91% 19 7986 558 21%
c p 42.29 16 26 62 23358 600016 41471 91% 19 7986 558 21%
c - 42.67 18 26 63 23358 604855 29784 91% 19 7986 558 21%
c - 44.20 18 26 64 23360 624055 27499 90% 19 7986 558 21%
c W 44.75 18 26 64 23365 630062 32063 90% 19 7986 558 21%
c - 45.89 18 25 65 23372 643557 28110 90% 19 7986 558 21%
c - 47.57 20 25 66 23380 663358 29319 90% 19 7986 558 21%
c O 47.77 20 25 66 23381 666063 31261 90% 19 7986 558 21%
c p 48.79 20 25 66 23388 680016 41909 89% 19 7986 558 21%
c - 49.07 20 25 67 23389 683459 29343 89% 19 7986 558 21%
c B 50.67 20 25 67 23390 703065 43850 89% 19 7986 558 21%
c - 50.77 20 25 68 23390 703859 30236 89% 19 7986 558 21%
c - 52.54 21 25 69 23391 724562 30855 89% 19 7986 558 21%
c W 54.11 21 25 69 23392 741066 43725 89% 19 7986 558 21%
c - 54.56 21 24 70 23392 745562 32203 89% 19 7986 558 21%
c p 56.38 21 24 70 23392 765016 46595 89% 19 7986 558 21%
c 
c  seconds  reductions        redundant  irredundant
c         MB      restarts           trail     variables
c          level       conflicts         glue      remaining
c 
c - 56.60 21 24 71 23392 766862 32316 88% 19 7986 558 21%
c I 57.68 21 24 71 23392 780069 42050 88% 19 7986 558 21%
c - 58.37 16 25 72 23392 788463 33943 89% 19 7986 558 21%
c s 58.45 16 25 72 23392 788463 33813 89% 19 7986 558 21%
c w 58.56 16 25 72 23392 788463 33784 89% 19 7986 558 21%
c - 60.47 17 25 73 23395 810363 35990 89% 19 7986 558 21%
c B 61.39 17 25 73 23401 820073 44329 89% 19 7986 558 21%
c ] 61.59 17 26 73 23402 822618 46540 89% 19 7986 558 21%
c 1 61.59 17 26 73 23402 822618 46540 89% 19 7986 558 21%
c 
c --- [ result ] -------------------------------------------------------------
c 
s SATISFIABLE
v -1 -2 -3 -4 -5 -6 -7 8 -9 10 -11 -12 -13 -14 -15 -16 -17 -18 -19 -20 -21 -22
v -23 24 -25 26 -27 28 -29 -30 31 -32 -33 -34 -35 -36 37 38 -39 -40 -41 -42
v -43 -44 -45 -46 47 -48 -49 -50 -51 -52 -53 54 55 56 -57 -58 59 -60 -61 62 63
v -64 -65 -66 -67 -68 -69 -70 -71 -72 -73 -74 -75 -76 -77 -78 -79 -80 -81 82
v -83 -84 85 86 -87 -88 -89 -90 -91 -92 -93 -94 -95 -96 -97 -98 -99 -100 -101
v -102 -103 -104 -105 -106 -107 -108 109 -110 -111 -112 113 -114 -115 -116
v -117 -118 119 -120 121 -122 -123 -124 -125 126 -127 -128 129 -130 -131 -132
v -133 -134 -135 -136 -137 -138 -139 140 -141 -142 -143 -144 -145 -146 -147
v 148 -149 -150 -151 -152 -153 -154 -155 156 -157 -158 -159 -160 -161 162 -163
v -164 -165 -166 -167 -168 -169 -170 -171 -172 173 174 -175 -176 -177 -178
v -179 180 -181 182 183 -184 -185 -186 -187 -188 -189 -190 -191 -192 193 -194
v 195 -196 -197 -198 -199 -200 -201 -202 -203 -204 -205 -206 -207 -208 -209
v -210 211 -212 -213 214 -215 216 -217 -218 -219 -220 -221 -222 223 -224 -225
v -226 -227 -228 -229 -230 231 232 -233 -234 -235 -236 -237 -238 -239 240 -241
v -242 -243 -244 -245 246 -247 -248 -249 -250 -251 -252 -253 -254 255 256 -257
v 258 -259 -260 -261 -262 -263 264 -265 266 -267 268 269 -270 271 -272 -273
v -274 -275 276 -277 278 279 -280 -281 282 283 -284 -285 286 287 -288 -289 290
v -291 292 -293 294 295 296 297 -298 299 300 -301 302 303 -304 -305 -306 307
v -308 -309 -310 -311 312 313 314 -315 316 -317 -318 -319 -320 -321 -322 323
v -324 -325 -326 -327 -328 329 330 331 332 333 334 335 336 337 338 339 340 341
v 342 343 344 345 346 347 348 349 350 351 352 353 354 355 356 357 358 359 360
v 361 362 363 364 365 366 367 368 369 370 371 372 373 374 375 376 377 378 379
v 380 381 382 383 384 385 386 387 388 389 390 391 392 393 394 395 396 397 398
v -399 -400 -401 -402 -403 404 405 406 407 408 409 410 411 412 413 414 415 416
v 417 418 419 420 421 422 423 424 425 426 427 428 429 430 431 432 433 434 435
v 436 437 438 439 440 441 442 443 444 445 446 447 448 449 450 451 452 453 454
v 455 456 457 458 459 460 461 462 463 464 465 466 467 468 469 470 471 472 -473
v -474 -475 -476 -477 -478 -479 480 481 482 483 484 485 486 487 488 489 490
v 491 492 493 494 495 496 497 498 499 500 501 502 503 504 505 506 507 508 509
v 510 511 512 513 514 515 516 517 518 519 520 521 522 523 524 525 526 527 528
v 529 530 531 532 533 534 535 536 537 538 539 540 541 542 543 544 545 546 -547
v -548 -549 -550 -551 -552 -553 -554 -555 -556 -557 -558 -559 560 561 562 563
v 564 565 566 567 568 569 570 571 572 573 574 575 576 577 578 579 580 581 582
v 583 584 585 586 587 588 589 590 591 592 593 594 595 596 597 598 599 600 601
v 602 603 604 605 606 607 608 609 610 611 612 613 614 615 616 617 618 619 620
v -621 -622 -623 -624 -625 -626 -627 -628 -629 -630 -631 -632 -633 -634 -635
v 636 637 638 639 640 641 642 643 644 645 646 647 648 649 650 651 652 653 654
v 655 656 657 658 659 660 661 662 663 664 665 666 667 668 669 670 671 672 673
v 674 675 676 677 678 679 680 681 682 683 684 685 686 687 688 689 690 691 692
v 693 694 -695 -696 -697 -698 -699 -700 -701 -702 -703 -704 -705 -706 -707
v -708 -709 -710 -711 712 713 714 715 716 717 718 719 720 721 722 723 724 725
v 726 727 728 729 730 731 732 733 734 735 736 737 738 739 740 741 742 743 744
v 745 746 747 748 749 750 751 752 753 754 755 756 757 758 759 760 761 762 763
v 764 765 766 767 768 -769 -770 -771 -772 -773 -774 -775 -776 -777 -778 -779
v -780 -781 -782 -783 -784 -785 -786 787 788 789 790 791 792 793 794 795 796
v 797 798 799 800 801 802 803 804 805 806 807 808 809 810 811 812 813 814 815
v 816 817 818 819 820 821 822 823 824 825 826 827 828 829 830 831 832 833 834
v 835 836 837 838 839 840 841 842 -843 -844 -845 -846 -847 -848 -849 -850 -851
v -852 -853 -854 -855 -856 -857 -858 -859 -860 -861 -862 863 864 865 866 867
v 868 869 870 871 872 873 874 875 876 877 878 879 880 881 882 883 884 885 886
v 887 888 889 890 891 892 893 894 895 896 897 898 899 900 901 902 903 904 905
v 906 907 908 909 910 911 912 913 914 915 916 -917 -918 -919 -920 -921 -922
v -923 -924 -925 -926 -927 -928 -929 -930 -931 -932 -933 -934 -935 -936 -937
v -938 -939 -940 -941 942 943 944 945 946 947 948 949 950 951 952 953 954 955
v 956 957 958 959 960 961 962 963 964 965 966 967 968 969 970 971 972 973 974
v 975 976 977 978 979 980 981 982 983 984 985 986 987 988 989 990 -991 -992
v -993 -994 -995 -996 -997 -998 -999 -1000 -1001 -1002 -1003 -1004 -1005 -1006
v -1007 -1008 -1009 -1010 -1011 -1012 -1013 -1014 -1015 -1016 -1017 1018 1019
v 1020 1021 1022 1023 1024 1025 1026 1027 1028 1029 1030 1031 1032 1033 1034
v 1035 1036 1037 1038 1039 1040 1041 1042 1043 1044 1045 1046 1047 1048 1049
v 1050 1051 1052 1053 1054 1055 1056 1057 1058 1059 1060 1061 1062 1063 1064
v -1065 -1066 -1067 -1068 -1069 -1070 -1071 -1072 -1073 -1074 -1075 -1076
v -1077 -1078 -1079 -1080 -1081 -1082 -1083 -1084 -1085 -1086 -1087 -1088
v -1089 -1090 -1091 -1092 1093 1094 1095 1096 1097 1098 1099 1100 1101 1102
v 1103 1104 1105 1106 1107 1108 1109 1110 1111 1112 1113 1114 1115 1116 1117
v 1118 1119 1120 1121 1122 1123 1124 1125 1126 1127 1128 1129 1130 1131 1132
v 1133 1134 1135 1136 1137 1138 -1139 -1140 -1141 -1142 -1143 -1144 -1145
v -1146 -1147 -1148 -1149 -1150 -1151 -1152 -1153 -1154 -1155 -1156 -1157
v -1158 -1159 -1160 -1161 -1162 -1163 -1164 -1165 -1166 -1167 -1168 -1169 1170
v 1171 1172 1173 1174 1175 1176 1177 1178 1179 1180 1181 1182 1183 1184 1185
v 1186 1187 1188 1189 1190 1191 1192 1193 1194 1195 1196 1197 1198 1199 1200
v 1201 1202 1203 1204 1205 1206 1207 1208 1209 1210 1211 1212 -1213 -1214
v -1215 -1216 -1217 -1218 -1219 -1220 -1221 -1222 -1223 -1224 -1225 -1226
v -1227 -1228 -1229 -1230 -1231 -1232 -1233 -1234 -1235 -1236 -1237 -1238
v -1239 -1240 -1241 -1242 -1243 -1244 1245 1246 1247 1248 1249 1250 1251 1252
v 1253 1254 1255 1256 1257 1258 1259 1260 1261 1262 1263 1264 1265 1266 1267
v 1268 1269 1270 1271 1272 1273 1274 1275 1276 1277 1278 1279 1280 1281 1282
v 1283 1284 1285 1286 -1287 -1288 -1289 -1290 -1291 -1292 -1293 -1294 -1295
v -1296 -1297 -1298 -1299 -1300 -1301 -1302 -1303 -1304 -1305 -1306 -1307
v -1308 -1309 -1310 -1311 -1312 -1313 -1314 -1315 -1316 -1317 -1318 -1319
v -1320 -1321 1322 1323 1324 1325 1326 1327 1328 1329 1330 1331 1332 1333 1334
v 1335 1336 1337 1338 1339 1340 1341 1342 1343 1344 1345 1346 1347 1348 1349
v 1350 1351 1352 1353 1354 1355 1356 1357 1358 1359 1360 -1361 -1362 -1363
v -1364 -1365 -1366 -1367 -1368 -1369 -1370 -1371 -1372 -1373 -1374 -1375
v -1376 -1377 -1378 -1379 -1380 -1381 -1382 -1383 -1384 -1385 -1386 -1387
v -1388 -1389 -1390 -1391 -1392 -1393 -1394 -1395 -1396 1397 1398 1399 1400
v 1401 1402 1403 1404 1405 1406 1407 1408 1409 1410 1411 1412 1413 1414 1415
v 1416 1417 1418 1419 1420 1421 1422 1423 1424 1425 1426 1427 1428 1429 1430
v 1431 1432 1433 1434 -1435 -1436 -1437 -1438 -1439 -1440 -1441 -1442 -1443
v -1444 -1445 -1446 -1447 -1448 -1449 -1450 -1451 -1452 -1453 -1454 -1455
v -1456 -1457 -1458 -1459 -1460 -1461 -1462 -1463 -1464 -1465 -1466 -1467
v -1468 -1469 -1470 -1471 -1472 -1473 1474 1475 1476 1477 1478 1479 1480 1481
v 1482 1483 1484 1485 1486 1487 1488 1489 1490 1491 1492 1493 1494 1495 1496
v 1497 1498 1499 1500 1501 1502 1503 1504 1505 1506 1507 1508 -1509 -1510
v -1511 -1512 -1513 -1514 -1515 -1516 -1517 -1518 -1519 -1520 -1521 -1522
v -1523 -1524 -1525 -1526 -1527 -1528 -1529 -1530 -1531 -1532 -1533 -1534
v -1535 -1536 -1537 -1538 -1539 -1540 -1541 -1542 -1543 -1544 -1545 -1546
v -1547 -1548 -1549 1550 1551 1552 1553 1554 1555 1556 1557 1558 1559 1560
v 1561 1562 1563 1564 1565 1566 1567 1568 1569 1570 1571 1572 1573 1574 1575
v 1576 1577 1578 1579 1580 1581 1582 -1583 -1584 -1585 -1586 -1587 -1588 -1589
v -1590 -1591 -1592 -1593 -1594 -1595 -1596 -1597 -1598 -1599 -1600 -1601
v -1602 -1603 -1604 -1605 -1606 -1607 -1608 -1609 -1610 -1611 -1612 -1613
v -1614 -1615 -1616 -1617 -1618 -1619 -1620 -1621 -1622 -1623 -1624 -1625 1626
v 1627 1628 1629 1630 1631 1632 1633 1634 1635 1636 1637 1638 1639 1640 1641
v 1642 1643 1644 1645 1646 1647 1648 1649 1650 1651 1652 1653 1654 1655 1656
v -1657 -1658 -1659 -1660 -1661 -1662 -1663 -1664 -1665 -1666 -1667 -1668
v -1669 -1670 -1671 -1672 -1673 -1674 -1675 -1676 -1677 -1678 -1679 -1680
v -1681 -1682 -1683 -1684 -1685 -1686 -1687 -1688 -1689 -1690 -1691 -1692
v -1693 -1694 -1695 -1696 -1697 -1698 -1699 -1700 1701 1702 1703 1704 1705
v 1706 1707 1708 1709 1710 1711 1712 1713 1714 1715 1716 1717 1718 1719 1720
v 1721 1722 1723 1724 1725 1726 1727 1728 1729 1730 -1731 -1732 -1733 -1734
v -1735 -1736 -1737 -1738 -1739 -1740 -1741 -1742 -1743 -1744 -1745 -1746
v -1747 -1748 -1749 -1750 -1751 -1752 -1753 -1754 -1755 -1756 -1757 -1758
v -1759 -1760 -1761 -1762 -1763 -1764 -1765 -1766 -1767 -1768 -1769 -1770
v -1771 -1772 -1773 -1774 -1775 1776 1777 1778 1779 1780 1781 1782 1783 1784
v 1785 1786 1787 1788 1789 1790 1791 1792 1793 1794 1795 1796 1797 1798 1799
v 1800 1801 1802 1803 1804 -1805 -1806 -1807 -1808 -1809 -1810 -1811 -1812
v -1813 -1814 -1815 -1816 -1817 -1818 -1819 -1820 -1821 -1822 -1823 -1824
v -1825 -1826 -1827 -1828 -1829 -1830 -1831 -1832 -1833 -1834 -1835 -1836
v -1837 -1838 -1839 -1840 -1841 -1842 -1843 -1844 -1845 -1846 -1847 -1848
v -1849 -1850 1851 1852 1853 1854 1855 1856 1857 1858 1859 1860 1861 1862 1863
v 1864 1865 1866 1867 1868 1869 1870 1871 1872 1873 1874 1875 1876 1877 1878
v -1879 -1880 -1881 -1882 -1883 -1884 -1885 -1886 -1887 -1888 -1889 -1890
v -1891 -1892 -1893 -1894 -1895 -1896 -1897 -1898 -1899 -1900 -1901 -1902
v -1903 -1904 -1905 -1906 -1907 -1908 -1909 -1910 -1911 -1912 -1913 -1914
v -1915 -1916 -1917 -1918 -1919 -1920 -1921 -1922 -1923 -1924 -1925 -1926 1927
v 1928 1929 1930 1931 1932 1933 1934 1935 1936 1937 1938 1939 1940 1941 1942
v 1943 1944 1945 1946 1947 1948 1949 1950 1951 1952 -1953 -1954 -1955 -1956
v -1957 -1958 -1959 -1960 -1961 -1962 -1963 -1964 -1965 -1966 -1967 -1968
v -1969 -1970 -1971 -1972 -1973 -1974 -1975 -1976 -1977 -1978 -1979 -1980
v -1981 -1982 -1983 -1984 -1985 -1986 -1987 -1988 -1989 -1990 -1991 -1992
v -1993 -1994 -1995 -1996 -1997 -1998 -1999 -2000 -2001 2002 2003 2004 2005
v 2006 2007 2008 2009 2010 2011 2012 2013 2014 2015 2016 2017 2018 2019 2020
v 2021 2022 2023 2024 2025 2026 -2027 -2028 -2029 -2030 -2031 -2032 -2033
v -2034 -2035 -2036 -2037 -2038 -2039 -2040 -2041 -2042 -2043 -2044 -2045
v -2046 -2047 -2048 -2049 -2050 -2051 -2052 -2053 -2054 -2055 -2056 -2057
v -2058 -2059 -2060 -2061 -2062 -2063 -2064 -2065 -2066 -2067 -2068 -2069
v -2070 -2071 -2072 -2073 -2074 -2075 -2076 -2077 2078 2079 2080 2081 2082
v 2083 2084 2085 2086 2087 2088 2089 2090 2091 2092 2093 2094 2095 2096 2097
v 2098 2099 2100 -2101 -2102 -2103 -2104 -2105 -2106 -2107 -2108 -2109 -2110
v -2111 -2112 -2113 -2114 -2115 -2116 -2117 -2118 -2119 -2120 -2121 -2122
v -2123 -2124 -2125 -2126 -2127 -2128 -2129 -2130 -2131 -2132 -2133 -2134
v -2135 -2136 -2137 -2138 -2139 -2140 -2141 -2142 -2143 -2144 -2145 -2146
v -2147 -2148 -2149 -2150 -2151 -2152 2153 2154 2155 2156 2157 2158 2159 2160
v 2161 2162 2163 2164 2165 2166 2167 2168 2169 2170 2171 2172 2173 2174 -2175
v -2176 -2177 -2178 -2179 -2180 -2181 -2182 -2183 -2184 -2185 -2186 -2187
v -2188 -2189 -2190 -2191 -2192 -2193 -2194 -2195 -2196 -2197 -2198 -2199
v -2200 -2201 -2202 -2203 -2204 -2205 -2206 -2207 -2208 -2209 -2210 -2211
v -2212 -2213 -2214 -2215 -2216 -2217 -2218 -2219 -2220 -2221 -2222 -2223
v -2224 -2225 -2226 -2227 -2228 -2229 -2230 2231 2232 2233 2234 2235 2236 2237
v 2238 2239 2240 2241 2242 2243 2244 2245 2246 2247 2248 -2249 -2250 -2251
v -2252 -2253 -2254 -2255 -2256 -2257 -2258 -2259 -2260 -2261 -2262 -2263
v -2264 -2265 -2266 -2267 -2268 -2269 -2270 -2271 -2272 -2273 -2274 -2275
v -2276 -2277 -2278 -2279 -2280 -2281 -2282 -2283 -2284 -2285 -2286 -2287
v -2288 -2289 -2290 -2291 -2292 -2293 -2294 -2295 -2296 -2297 -2298 -2299
v -2300 -2301 -2302 -2303 -2304 -2305 -2306 -2307 -2308 -2309 2310 2311 2312
v 2313 2314 2315 2316 2317 2318 2319 2320 2321 2322 -2323 -2324 -2325 -2326
v -2327 -2328 -2329 -2330 -2331 -2332 -2333 -2334 -2335 -2336 -2337 -2338
v -2339 -2340 -2341 -2342 -2343 -2344 -2345 -2346 -2347 -2348 -2349 -2350
v -2351 -2352 -2353 -2354 -2355 -2356 -2357 -2358 -2359 -2360 -2361 -2362
v -2363 -2364 -2365 -2366 -2367 -2368 -2369 -2370 -2371 -2372 -2373 -2374
v -2375 -2376 -2377 -2378 -2379 -2380 -2381 -2382 -2383 -2384 2385 2386 2387
v 2388 2389 2390 2391 2392 2393 2394 2395 2396 -2397 -2398 -2399 -2400 -2401
v -2402 -2403 -2404 -2405 -2406 -2407 -2408 -2409 -2410 -2411 -2412 -2413
v -2414 -2415 -2416 -2417 -2418 -2419 -2420 -2421 -2422 -2423 -2424 -2425
v -2426 -2427 -2428 -2429 -2430 -2431 -2432 -2433 -2434 -2435 -2436 -2437
v -2438 -2439 -2440 -2441 -2442 -2443 -2444 -2445 -2446 -2447 -2448 -2449
v -2450 -2451 -2452 -2453 -2454 -2455 -2456 -2457 -2458 -2459 2460 2461 2462
v 2463 2464 2465 2466 2467 2468 2469 2470 -2471 -2472 -2473 -2474 -2475 -2476
v -2477 -2478 -2479 -2480 -2481 -2482 -2483 -2484 -2485 -2486 -2487 -2488
v -2489 -2490 -2491 -2492 -2493 -2494 -2495 -2496 -2497 -2498 -2499 -2500
v -2501 -2502 -2503 -2504 -2505 -2506 -2507 -2508 -2509 -2510 -2511 -2512
v -2513 -2514 -2515 -2516 -2517 -2518 -2519 -2520 -2521 -2522 -2523 -2524
v -2525 -2526 -2527 -2528 -2529 -2530 -2531 -2532 -2533 -2534 -2535 2536 2537
v 2538 2539 2540 2541 2542 2543 2544 -2545 -2546 -2547 -2548 -2549 -2550 -2551
v -2552 -2553 -2554 -2555 -2556 -2557 -2558 -2559 -2560 -2561 -2562 -2563
v -2564 -2565 -2566 -2567 -2568 -2569 -2570 -2571 -2572 -2573 -2574 -2575
v -2576 -2577 -2578 -2579 -2580 -2581 -2582 -2583 -2584 -2585 -2586 -2587
v -2588 -2589 -2590 -2591 -2592 -2593 -2594 -2595 -2596 -2597 -2598 -2599
v -2600 -2601 -2602 -2603 -2604 -2605 -2606 -2607 -2608 -2609 -2610 -2611
v -2612 -2613 -2614 -2615 -2616 2617 2618 -2619 -2620 -2621 -2622 -2623 -2624
v -2625 -2626 -2627 -2628 -2629 -2630 -2631 -2632 -2633 -2634 -2635 -2636
v -2637 -2638 -2639 -2640 -2641 -2642 -2643 -2644 -2645 -2646 -2647 -2648
v -2649 -2650 -2651 -2652 -2653 -2654 -2655 -2656 -2657 -2658 -2659 -2660
v -2661 -2662 -2663 -2664 -2665 -2666 -2667 -2668 -2669 -2670 -2671 -2672
v -2673 -2674 -2675 -2676 -2677 -2678 -2679 -2680 -2681 -2682 -2683 -2684
v -2685 -2686 -2687 -2688 -2689 -2690 -2691 -2692 0
c 
c --- [ run-time profiling ] -------------------------------------------------
c 
c process time taken by individual solving procedures
c (percentage relative to process time for solving)
c 
c        60.45   98.16% search
c        36.72   59.62% stable
c        22.62   36.73% unstable
c         1.13    1.84% simplify
c         1.11    1.81% walk
c         0.42    0.68% subsume
c         0.29    0.47% vivify
c         0.17    0.28% probe
c         0.07    0.11% elim
c         0.06    0.10% ternary
c         0.00    0.01% parse
c         0.00    0.00% lucky
c   =================================
c        61.59   99.99% solve
c 
c last line shows process time for solving
c (percentage relative to total process time)
c 
c --- [ statistics ] ---------------------------------------------------------
c 
c chronological:            158331        19.25 %  of conflicts
c conflicts:                822618     13357.36    per second
c decisions:               1363255     22136.02    per second
c eliminated:                 2051        76.19 %  of all variables
c fixed:                        83         3.08 %  of all variables
c learned:                  807901        98.21 %  per conflict
c learned_lits:           33677618       100.00 %  learned literals
c minimized:                     0         0.00 %  learned literals
c shrunken:               11025197        32.74 %  learned literals
c minishrunken:            3146420         9.34 %  learned literals
c propagations:           65758947         1.07 M  per second
c reduced:                  627913        76.33 %  per conflict
c rephased:                     40     20565.45    interval
c restarts:                  23402        35.15    interval
c stabilizing:                   5        58.55 %  of conflicts
c subsumed:                 118713         7.19 %  of all clauses
c strengthened:               7228         0.44 %  of all clauses
c ternary:                       9         0.02 %  of resolved
c vivified:                    137         0.01 %  of all clauses
c walked:                       12     68551.50    interval
c weakened:                   8781         2.88    average size
c 
c seconds are measured in process time for solving
c 
c --- [ resources ] ----------------------------------------------------------
c 
c total process time since initialization:        61.59    seconds
c total real time since initialization:           61.60    seconds
c maximum resident set size of process:           24.27    MB
c 
c --- [ shutting down ] ------------------------------------------------------
c 
c exit 10
